100
32
9
29
10
12
24
9
9
29
7
18
12
32
8
7
4
27
7
24
12
30
2
5
15
27
15
9
9
1
18
15
32
30
17
27
20
17
15
5
18
27
21
18
24
31
32
9
13
19
27
18
2
26
32
17
27
20
18
10
4
2
9
14
18
32
16
16
10
17
2
23
4
5
13
25
19
2
30
8
21
24
18
11
2
3
6
18
25
19
10
11
3
19
29
6
3
26
1
26
21
18